Route #1: 394 377 212 758 323 655 313
Route #2: 673 254 703 449 144 625 729 51 796
Route #3: 854 927 68 214 819 281 800 53 632 634
Route #4: 14 61 845 101 173 82 106 610 247
Route #5: 650 613 921 686 941 894 108 201
Route #6: 487 802 695 589 537 297 218 267 320 706
Route #7: 970 911 141 257 743 559 541 110 866
Route #8: 916 787 463 116 70 322 319 89 831
Route #9: 74 21 967 93 485 986 540 713 283
Route #10: 407 278 694 223 635 142 712 877
Route #11: 751 28 618 943 656 306 799 626 459
Route #12: 697 893 384 607 501 253 704 527
Route #13: 775 299 235 455 461 721 898 844 753 478
Route #14: 489 302 762 651 517 664 915 264 718 411 117 26
Route #15: 726 213 932 122 586 148 547 532 687
Cost: 248902
